qbf_easy_train/easy_3594_UNSAT.qdimacs
p cnf 26 64
a 16 9 14 0
e 1 2 3 4 5 6 7 8 10 11 12 13 15 17 18 19 20 21 22 23 24 25 26 0
3 -1 0
3 -2 0
1 2 -3 0
1 -3 -4 0
-1 3 -4 0
1 3 4 0
-1 -3 4 0
-6 -2 0
-6 -5 0
2 5 6 0
-6 5 -7 0
6 -5 -7 0
-6 -5 7 0
6 5 7 0
9 -7 0
9 -8 0
7 8 -9 0
-10 4 0
-10 -9 0
-4 9 10 0
13 -12 0
13 -1 0
12 1 -13 0
-14 -11 0
-14 -13 0
11 13 14 0
-16 -15 0
-16 -7 0
15 7 16 0
18 3 0
18 -17 0
-3 17 -18 0
19 -15 0
19 12 0
15 -12 -19 0
-20 -15 0
-20 -19 0
15 19 20 0
21 -6 0
21 17 0
6 -17 -21 0
-22 -20 0
-22 -21 0
20 21 22 0
23 18 0
23 -22 0
-18 22 -23 0
-24 -16 0
-24 23 0
16 -23 24 0
-14 24 -25 0
14 -24 -25 0
-14 -24 25 0
14 24 25 0
26 -10 0
26 -25 0
10 25 -26 0
16 12 -7 0
11 3 -14 -20 1 0
-6 4 15 0
18 9 8 0
-6 2 18 0
9 11 25 18 13 4 0
26 0
