sat_easy_train/easy_3594_UNSAT.dimacs
p cnf 135 464
1 -2 -3 0
-1 2 -3 0
1 2 3 0
-1 -2 3 0
6 4 0
6 5 0
-4 -5 -6 0
7 -4 0
7 -3 0
4 3 -7 0
8 6 0
8 -7 0
-6 7 -8 0
-8 -3 -9 0
8 3 -9 0
-8 3 9 0
8 -3 9 0
10 3 0
10 9 0
-3 -9 -10 0
-12 5 0
-12 -11 0
-5 11 12 0
-14 12 0
-14 13 0
-12 -13 14 0
-16 1 0
-16 -15 0
-1 15 16 0
17 16 0
17 8 0
-16 -8 -17 0
-18 14 0
-18 -17 0
-14 17 18 0
10 18 -19 0
-10 -18 -19 0
10 -18 19 0
-10 18 19 0
-19 13 -20 0
19 -13 -20 0
-19 -13 20 0
19 13 20 0
21 11 0
21 -7 0
-11 7 -21 0
22 21 0
22 6 0
-21 -6 -22 0
-23 -22 0
-23 13 0
22 -13 23 0
25 5 0
25 24 0
-5 -24 -25 0
-26 -16 0
-26 -15 0
16 15 26 0
-27 25 0
-27 -26 0
-25 26 27 0
-29 -27 0
-29 -28 0
27 28 29 0
-30 -23 0
-30 -29 0
23 29 30 0
-20 30 -31 0
20 -30 -31 0
-20 -30 31 0
20 30 31 0
32 -15 0
32 -5 0
15 5 -32 0
-32 -28 -33 0
32 28 -33 0
-32 28 33 0
32 -28 33 0
35 33 0
35 -34 0
-33 34 -35 0
-36 -13 0
-36 25 0
13 -25 36 0
-35 36 -37 0
35 -36 -37 0
-35 -36 37 0
35 36 37 0
-3 15 -40 0
3 -15 -40 0
-3 -15 40 0
3 15 40 0
41 -39 0
41 40 0
39 -40 -41 0
41 -42 -43 0
-41 42 -43 0
41 42 43 0
-41 -42 43 0
-6 43 -44 0
6 -43 -44 0
-6 -43 44 0
6 43 44 0
38 -44 -45 0
-38 44 -45 0
38 44 45 0
-38 -44 45 0
-18 45 -46 0
18 -45 -46 0
-18 -45 46 0
18 45 46 0
-47 -32 0
-47 41 0
32 -41 47 0
-46 -47 -48 0
46 47 -48 0
-46 47 48 0
46 -47 48 0
39 21 -49 0
-39 -21 -49 0
39 -21 49 0
-39 21 49 0
50 -17 0
50 -25 0
17 25 -50 0
17 -50 -51 0
-17 50 -51 0
17 50 51 0
-17 -50 51 0
13 42 -52 0
-13 -42 -52 0
13 -42 52 0
-13 42 52 0
50 32 -53 0
-50 -32 -53 0
50 -32 53 0
-50 32 53 0
-54 52 0
-54 -53 0
-52 53 54 0
-55 51 0
-55 -54 0
-51 54 55 0
-56 49 0
-56 -55 0
-49 55 56 0
-57 -48 0
-57 56 0
48 -56 57 0
59 -1 0
59 13 0
1 -13 -59 0
-58 59 -60 0
58 -59 -60 0
-58 -59 60 0
58 59 60 0
61 57 0
61 -60 0
-57 60 -61 0
62 11 0
62 16 0
-11 -16 -62 0
-63 -62 0
-63 58 0
62 -58 63 0
-64 21 0
-64 -12 0
-21 12 64 0
-65 -63 0
-65 64 0
63 -64 65 0
-66 42 0
-66 58 0
-42 -58 66 0
-67 66 0
-67 43 0
-66 -43 67 0
65 67 -68 0
-65 -67 -68 0
65 -67 68 0
-65 67 68 0
-42 11 -69 0
42 -11 -69 0
-42 -11 69 0
42 11 69 0
-69 -15 -70 0
69 15 -70 0
-69 15 70 0
69 -15 70 0
-70 44 -71 0
70 -44 -71 0
-70 -44 71 0
70 44 71 0
2 44 -72 0
-2 -44 -72 0
2 -44 72 0
-2 44 72 0
-11 72 -73 0
11 -72 -73 0
-11 -72 73 0
11 72 73 0
9 52 -74 0
-9 -52 -74 0
9 -52 74 0
-9 52 74 0
-75 -73 0
-75 74 0
73 -74 75 0
-76 28 0
-76 26 0
-28 -26 76 0
-75 76 -77 0
75 -76 -77 0
-75 -76 77 0
75 76 77 0
-78 -71 0
-78 -77 0
71 77 78 0
-79 -68 0
-79 78 0
68 -78 79 0
-14 32 -80 0
14 -32 -80 0
-14 -32 80 0
14 32 80 0
-81 -25 0
-81 -80 0
25 80 81 0
2 58 -82 0
-2 -58 -82 0
2 -58 82 0
-2 58 82 0
-83 82 0
-83 -2 0
-82 2 83 0
84 44 0
84 -26 0
-44 26 -84 0
84 -85 -86 0
-84 85 -86 0
84 85 86 0
-84 -85 86 0
83 -86 -87 0
-83 86 -87 0
83 86 87 0
-83 -86 87 0
81 87 -88 0
-81 -87 -88 0
81 -87 88 0
-81 87 88 0
-79 -88 -89 0
79 88 -89 0
-79 88 89 0
79 -88 89 0
-61 89 -90 0
61 -89 -90 0
-61 -89 90 0
61 89 90 0
91 37 0
91 -90 0
-37 90 -91 0
-92 58 0
-92 -4 0
-58 4 92 0
24 -3 -93 0
-24 3 -93 0
24 3 93 0
-24 -3 93 0
92 93 -94 0
-92 -93 -94 0
92 -93 94 0
-92 93 94 0
-9 39 -95 0
9 -39 -95 0
-9 -39 95 0
9 39 95 0
95 -32 -96 0
-95 32 -96 0
95 32 96 0
-95 -32 96 0
-97 5 0
-97 -27 0
-5 27 97 0
-98 15 0
-98 40 0
-15 -40 98 0
98 -3 -99 0
-98 3 -99 0
98 3 99 0
-98 -3 99 0
-101 32 0
-101 100 0
-32 -100 101 0
-102 -99 0
-102 -101 0
99 101 102 0
-97 -102 -103 0
97 102 -103 0
-97 102 103 0
97 -102 103 0
104 96 0
104 -103 0
-96 103 -104 0
105 -94 0
105 -104 0
94 104 -105 0
-106 -59 0
-106 -39 0
59 39 106 0
107 45 0
107 3 0
-45 -3 -107 0
-108 106 0
-108 107 0
-106 -107 108 0
109 -18 0
109 38 0
18 -38 -109 0
109 -53 -110 0
-109 53 -110 0
109 53 110 0
-109 -53 110 0
-111 -26 0
-111 -52 0
26 52 111 0
-111 -14 -112 0
111 14 -112 0
-111 14 112 0
111 -14 112 0
-113 -110 0
-113 -112 0
110 112 113 0
-108 113 -114 0
108 -113 -114 0
-108 -113 114 0
108 113 114 0
-115 105 0
-115 -114 0
-105 114 115 0
-116 -39 0
-116 -58 0
39 58 116 0
-117 109 0
-117 26 0
-109 -26 117 0
-118 116 0
-118 -117 0
-116 117 118 0
119 -115 0
119 -118 0
115 118 -119 0
120 91 0
120 -119 0
-91 119 -120 0
-16 99 -121 0
16 -99 -121 0
-16 -99 121 0
16 99 121 0
122 -9 0
122 27 0
9 -27 -122 0
123 8 0
123 100 0
-8 -100 -123 0
124 -123 0
124 72 0
123 -72 -124 0
125 122 0
125 -124 0
-122 124 -125 0
126 -121 0
126 125 0
121 -125 -126 0
-127 111 0
-127 44 0
-111 -44 127 0
-128 85 0
-128 -127 0
-85 127 128 0
-129 -126 0
-129 128 0
126 -128 129 0
130 85 0
130 18 0
-85 -18 -130 0
131 -32 0
131 22 0
32 -22 -131 0
-130 -131 -132 0
130 131 -132 0
-130 131 132 0
130 -131 132 0
129 -132 -133 0
-129 132 -133 0
129 132 133 0
-129 -132 133 0
-134 120 0
-134 133 0
-120 -133 134 0
31 134 -135 0
-31 -134 -135 0
31 -134 135 0
-31 134 135 0
-95 -130 0
-112 -126 123 0
118 23 -45 -3 0
12 -68 -3 7 -102 -37 0
-80 -21 85 0
-44 70 30 19 22 -111 0
55 74 0
-134 111 52 0
36 -16 -93 0
-66 -131 50 119 102 0
5 -114 83 0
-34 -132 -97 9 128 0
104 -113 9 -94 0
71 -120 16 -96 -124 0
112 12 0
40 -118 32 -14 0
-111 -71 95 0
118 61 -38 34 0
89 48 49 0
94 35 133 0
-2 48 -46 57 0
124 -4 0
-14 -1 114 19 91 0
-71 113 26 129 -16 -53 0
87 -89 56 0
119 -46 0
78 22 51 0
-103 33 133 69 56 0
132 -36 0
99 -18 124 -127 23 0
20 -52 -2 -124 0
-10 126 -135 0
117 135 0
-130 103 0
-56 103 17 -18 -92 0
-54 101 -106 52 -107 0
26 133 -100 18 0
18 -128 -135 -46 95 -117 0
71 60 123 -24 0
62 95 -47 51 20 45 0
111 -39 -81 0
75 57 0
-114 -84 -27 0
-96 64 -4 -14 -104 8 0
92 -1 0
-54 67 90 -103 0
81 57 -75 42 120 0
-65 -26 -94 -29 0
-35 90 37 26 -51 0
-109 52 -110 62 0
60 -105 0
-111 -70 72 0
-120 42 99 -6 -95 0
122 -10 -83 0
-111 2 13 22 0
-20 39 -58 10 0
114 100 0
52 -40 0
-34 -117 57 0
23 43 119 47 81 0
135 0
